(set-logic QF_LRA)
(declare-fun X0 () Real )
(declare-fun Y0 () Real )
(declare-fun X1 () Real )
(declare-fun Y1 () Real )
(declare-fun X2 () Real )
(declare-fun Y2 () Real )
(declare-fun X3 () Real )
(declare-fun Y3 () Real )
(declare-fun X4 () Real )
(declare-fun Y4 () Real )
(declare-fun X5 () Real )
(declare-fun Y5 () Real )
(declare-fun Z () Real )
(declare-fun k () Real )
(assert (let
(( $goal (>= Z k) ))
(let
((
$phi ( and 
( or ( <= ( + X0 67 ) X1 )  ( <= ( + X1 33 ) X0 )  ( <= ( + Y0 67 ) Y1 )  ( <= ( + Y1 94 ) Y0 )  )
( or ( <= ( + X0 67 ) X2 )  ( <= ( + X2 19 ) X0 )  ( <= ( + Y0 67 ) Y2 )  ( <= ( + Y2 29 ) Y0 )  )
( or ( <= ( + X0 67 ) X3 )  ( <= ( + X3 20 ) X0 )  ( <= ( + Y0 67 ) Y3 )  ( <= ( + Y3 62 ) Y0 )  )
( or ( <= ( + X0 67 ) X4 )  ( <= ( + X4 11 ) X0 )  ( <= ( + Y0 67 ) Y4 )  ( <= ( + Y4 98 ) Y0 )  )
( or ( <= ( + X0 67 ) X5 )  ( <= ( + X5 99 ) X0 )  ( <= ( + Y0 67 ) Y5 )  ( <= ( + Y5 64 ) Y0 )  )
( or ( <= ( + X1 33 ) X2 )  ( <= ( + X2 19 ) X1 )  ( <= ( + Y1 94 ) Y2 )  ( <= ( + Y2 29 ) Y1 )  )
( or ( <= ( + X1 33 ) X3 )  ( <= ( + X3 20 ) X1 )  ( <= ( + Y1 94 ) Y3 )  ( <= ( + Y3 62 ) Y1 )  )
( or ( <= ( + X1 33 ) X4 )  ( <= ( + X4 11 ) X1 )  ( <= ( + Y1 94 ) Y4 )  ( <= ( + Y4 98 ) Y1 )  )
( or ( <= ( + X1 33 ) X5 )  ( <= ( + X5 99 ) X1 )  ( <= ( + Y1 94 ) Y5 )  ( <= ( + Y5 64 ) Y1 )  )
( or ( <= ( + X2 19 ) X3 )  ( <= ( + X3 20 ) X2 )  ( <= ( + Y2 29 ) Y3 )  ( <= ( + Y3 62 ) Y2 )  )
( or ( <= ( + X2 19 ) X4 )  ( <= ( + X4 11 ) X2 )  ( <= ( + Y2 29 ) Y4 )  ( <= ( + Y4 98 ) Y2 )  )
( or ( <= ( + X2 19 ) X5 )  ( <= ( + X5 99 ) X2 )  ( <= ( + Y2 29 ) Y5 )  ( <= ( + Y5 64 ) Y2 )  )
( or ( <= ( + X3 20 ) X4 )  ( <= ( + X4 11 ) X3 )  ( <= ( + Y3 62 ) Y4 )  ( <= ( + Y4 98 ) Y3 )  )
( or ( <= ( + X3 20 ) X5 )  ( <= ( + X5 99 ) X3 )  ( <= ( + Y3 62 ) Y5 )  ( <= ( + Y5 64 ) Y3 )  )
( or ( <= ( + X4 11 ) X5 )  ( <= ( + X5 99 ) X4 )  ( <= ( + Y4 98 ) Y5 )  ( <= ( + Y5 64 ) Y4 )  )
( >= X0 0)
( <= ( + X0 67) Z)
( >= Y0 0)
( <= ( + Y0 67 ) 122)
( >= X1 0)
( <= ( + X1 33) Z)
( >= Y1 0)
( <= ( + Y1 94 ) 122)
( >= X2 0)
( <= ( + X2 19) Z)
( >= Y2 0)
( <= ( + Y2 29 ) 122)
( >= X3 0)
( <= ( + X3 20) Z)
( >= Y3 0)
( <= ( + Y3 62 ) 122)
( >= X4 0)
( <= ( + X4 11) Z)
( >= Y4 0)
( <= ( + Y4 98 ) 122)
( >= X5 0)
( <= ( + X5 99) Z)
( >= Y5 0)
( <= ( + Y5 64 ) 122)
) )
)(=> $phi $goal))))